c --- [ banner ] -------------------------------------------------------------
c 
c CaDiCaL Radically Simplified CDCL SAT Solver
c Copyright (c) 2016-2021 A. Biere, M. Fleury, N. Froleyks
c 
c Version 1.5.2 a5f15211db36c3956764e18194dd5bd63bf3b5e6
c g++ (GCC) 9.3.0 -Wall -Wextra -O3 -DNDEBUG
c Fri Oct 21 01:27:37 EDT 2022 Linux gra-login3 3.10.0-1160.66.1.el7.x86_64 x86_64
c 
c --- [ limit ] --------------------------------------------------------------
c 
c setting conflict limit to 200000 conflicts (due to '200000')
c 
c --- [ parsing input ] ------------------------------------------------------
c 
c reading DIMACS file from '33.cubes4076.adj'
c opening file to read '33.cubes4076.adj'
c found 'p cnf 6160 1595474' header
c parsed 1595474 clauses in 19.11 seconds process time
c closing file '33.cubes4076.adj'
c after reading 1457566770 bytes 1390.0 MB
c 
c --- [ options ] ------------------------------------------------------------
c 
c all options are set to their default value
c 
c --- [ solving ] ------------------------------------------------------------
c 
c time measured in process time since initialization
c 
c  seconds    reductions  redundant   irredundant
c          MB     restarts       trail       variables
c            level   conflicts       glue         remaining
c 
c * 19.12 1380  0 0   0    0    0  0% 0 1595422 2448 40%
c { 20.32 1438  0 0   0    0    0  0% 0 1595422 2448 40%
c i 20.65 1444 1026 0   0    6    4 33% 1 1595422 2338 38%
c i 25.27 1527 241 0  14  125  109 30% 34 1595422 2304 37%
c i 25.45 1528 214 0  14  143  123 30% 32 1595422 2303 37%
c i 25.49 1528 213 0  14  144  123 30% 32 1595422 2302 37%
c i 25.60 1530 206 0  14  151  128 30% 31 1595422 2301 37%
c i 25.82 1531 176 0  14  191  156 30% 29 1595422 2300 37%
c i 25.96 1532 166 0  14  210  170 30% 29 1595422 2299 37%
c i 26.23 1533 131 0  14  289  237 30% 27 1595422 2298 37%
c - 29.99 1399 128 1  14  301  245 30% 27 229834 2298 37%
c i 30.95 1363 118 1  25  378  319 29% 27 229834 2297 37%
c i 31.01 1363 116 1  28  395  334 29% 28 229834 2296 37%
c i 31.25 1363 115 1  35  432  368 30% 31 229834 2295 37%
c i 31.69 1363 107 1  46  499  419 29% 30 229834 2294 37%
c i 31.74 1363 105 1  46  515  433 29% 31 229834 2293 37%
c i 31.74 1363 105 1  46  517  434 29% 30 229834 2292 37%
c i 31.79 1363 103 1  46  549  460 29% 30 229834 2291 37%
c i 32.39 1363 95 1  70  748  574 28% 33 229834 2289 37%
c i 32.47 1363 91 1  76  805  622 29% 33 229834 2288 37%
c 
c  seconds    reductions  redundant   irredundant
c          MB     restarts       trail       variables
c            level   conflicts       glue         remaining
c 
c i 32.51 1363 89 1  76  835  650 29% 32 229834 2287 37%
c i 32.52 1363 89 1  76  847  661 29% 32 229834 2286 37%
c i 32.52 1363 88 1  76  848  661 29% 32 229834 2285 37%
c i 32.52 1363 88 1  76  852  663 29% 32 229834 2284 37%
c i 32.53 1363 88 1  76  853  663 29% 32 229834 2283 37%
c i 32.59 1363 88 1  76  884  689 29% 32 229834 2282 37%
c i 32.61 1363 88 1  76  888  692 29% 32 229834 2281 37%
c } 32.76 1363 82 1  81 1000  723 28% 31 229834 2281 37%
c [ 32.76 1363  0 1  81 1000  723  0% 0 229834 2281 37%
c O 32.77 1363  8 1  81 1003  724 17% 8 229834 2281 37%
c i 33.00 1363 23 1  81 1108  780 30% 20 229834 2280 37%
c - 33.38 1458 23 2  81 1119  667 30% 20 229784 2280 37%
c - 34.00 1458 26 3  82 2346 1040 32% 22 229784 2280 37%
c ] 34.21 1458 24 3  82 3000 1404 32% 21 229784 2280 37%
c { 34.21 1458 82 3  82 3000 1404 28% 31 229784 2280 37%
c F 34.36 1458 82 3  82 3004 1408 22% 31 229784 2280 37%
c i 35.25 1458 79 3 115 3372 1712 43% 31 229784 2279 37%
c i 36.07 1458 85 3 173 3632 1939 43% 37 229784 2278 37%
c i 36.11 1458 83 3 180 3691 1995 44% 36 229784 2277 37%
c i 36.11 1458 83 3 180 3692 1995 44% 36 229784 2276 37%
c 
c  seconds    reductions  redundant   irredundant
c          MB     restarts       trail       variables
c            level   conflicts       glue         remaining
c 
c i 36.35 1458 81 3 204 3862 2140 44% 37 229784 2275 37%
c i 36.47 1458 82 3 208 3884 2159 44% 37 229784 2274 37%
c - 37.00 1364 81 4 219 3979 1709 44% 37 229768 2274 37%
c i 37.77 1365 76 4 239 4563 2191 45% 36 229768 2273 37%
c i 38.26 1365 73 4 251 4894 2414 46% 35 229768 2272 37%
c d 38.76 1365 71 4 253 5000 2503 46% 35 229757 2269 37%
c 2 38.81 1365 71 4 253 5000 3392 46% 35 229748 2264 37%
c p 44.33 1365 71 4 253 5000 6802 46% 35 229748 2211 36%
c d 44.65 1365 71 4 253 5000 6510 46% 35 194591 2208 36%
c # 46.40 1365 65 4 274 6005 7282 47% 33 194589 2207 36%
c - 46.69 1366 64 5 274 6021 2555 47% 33 194589 2207 36%
c } 47.13 1366 58 5 278 7000 3285 48% 31 194589 2207 36%
c [ 47.13 1366 24 5 278 7000 3285 86% 21 194589 2207 36%
c - 47.53 1366 25 6 279 8342 2855 71% 21 194589 2207 36%
c ] 47.68 1366 24 6 279 8688 3011 69% 21 194589 2207 36%
c 1 47.68 1366 24 6 279 8688 3011 69% 21 194589 2207 36%
c 
c --- [ writing output ] -----------------------------------------------------
c 
c writing simplified CNF to DIMACS file 'simp/33.cubes4076.adj.simp1'
c * 47.68 1366 24 6 279 8688 3011 69% 21 194589 2207 36%
c opening file to write 'simp/33.cubes4076.adj.simp1'
c writing 'p cnf 6160 194589' header
c closing file 'simp/33.cubes4076.adj.simp1'
c after writing 86495540 bytes 82.5 MB
c wrote 194589 clauses in 0.63 seconds process time
c 
c --- [ writing extension ] --------------------------------------------------
c 
c writing extension stack to 'simp/33.cubes4076.adj.ext1'
c opening file to write 'simp/33.cubes4076.adj.ext1'
c closing file 'simp/33.cubes4076.adj.ext1'
c after writing 12227 bytes 0.0 MB
c wrote 816 witnesses in 0.00 seconds process time
c 
c --- [ result ] -------------------------------------------------------------
c 
s SATISFIABLE
c 
c --- [ run-time profiling ] -------------------------------------------------
c 
c process time taken by individual solving procedures
c (percentage relative to process time for solving)
c 
c        22.22   77.79% search
c        19.11   66.93% parse
c        19.02   66.60% unstable
c         6.34   22.21% simplify
c         5.52   19.33% probe
c         1.99    6.97% stable
c         1.21    4.22% lucky
c         0.04    0.13% ternary
c   =================================
c        28.56   59.12% solve
c 
c last line shows process time for solving
c (percentage relative to total process time)
c 
c --- [ statistics ] ---------------------------------------------------------
c 
c chronological:              2022        23.27 %  of conflicts
c conflicts:                  8688       304.21    per second
c decisions:                 44818      1569.28    per second
c fixed:                       802        13.02 %  of all variables
c learned:                    8437        97.11 %  per conflict
c learned_lits:            1626616       100.00 %  learned literals
c minimized:                     0         0.00 %  learned literals
c shrunken:                1117370        68.69 %  learned literals
c minishrunken:              73424         4.51 %  learned literals
c propagations:            1468064         0.05 M  per second
c reduced:                    3060        35.22 %  per conflict
c rephased:                      3      2896.00    interval
c restarts:                    279        31.14    interval
c stabilizing:                   2        42.45 %  of conflicts
c substituted:                   7         0.11 %  of all variables
c subsumed:                   2410         0.07 %  of all clauses
c ternary:                     889         0.53 %  of resolved
c weakened:                     14         2.00    average size
c 
c seconds are measured in process time for solving
c 
c --- [ resources ] ----------------------------------------------------------
c 
c total process time since initialization:        48.31    seconds
c total real time since initialization:           48.46    seconds
c maximum resident set size of process:         1553.31    MB
c 
c --- [ shutting down ] ------------------------------------------------------
c 
c exit 10
WARNING! DIMACS header mismatch: wrong number of variables.
============================[ Problem Statistics ]=============================
|                                                                             |
|  Number of variables:          6120                                         |
|  Number of clauses:          194589                                         |
|  Parse time:                   1.17 s                                       |
|  Simplification time:          0.02 s                                       |
|                                                                             |
============================[ Search Statistics ]====================================================
| Conflicts |          ORIGINAL         |          LEARNT          | Num Sols |      SUBGRAPHS      |
|           |    Vars  Clauses Literals |    Limit  Clauses Lit/Cl |          | Canonical Noncanon. |
=====================================================================================================
|       107 |    6028   194596 18942070 |     2000      107    104 |        0 |        28         7 |
|       610 |    6028   194949 18949753 |     2000      610     42 |        0 |       126       360 |
|      1403 |    6028   195517 18958990 |     2000     1403     26 |        0 |       316       928 |
|      2809 |    6028   196586 18976102 |     3599     1808     14 |        0 |       578      1997 |
|      5717 |    6028   198988 19022401 |     5003     2920     14 |        0 |      1410      4399 |
|     13427 |    6028   205939 19160400 |     7554     4981     15 |        0 |      3044     11350 |
|     22502 |    6028   213875 19322609 |     9992     5894     15 |        0 |      5071     19286 |
|     25857 |    6028   215522 19358839 |     9992     9249     33 |        0 |      5491     20933 |
|     28507 |    6028   215610 19360205 |    11199     6906     49 |        0 |      5515     21021 |
|     61843 |    6028   245102 19958135 |    16011    14254     16 |        0 |     12150     50513 |
|    127869 |    6028   305362 21099160 |    24405    11674     12 |        0 |     23228    110773 |
|    137568 |    6028   306412 21119769 |    24405    21373     52 |        0 |     23410    111823 |
|    187157 |    6028   343027 21814462 |    29211    18568     14 |        0 |     29599    148438 |
|    382141 |    6028   518550 25010062 |    41212    40553     14 |        0 |     54995    323961 |
|    498253 |    6028   605470 26555633 |    48415    24068     11 |        0 |     71470    410881 |
|    797295 |    6028   860723 30547313 |    60406    54101     12 |        0 |    101944    666134 |
|   1086988 |    5996   850214 30039764 |    70006    49194     41 |        0 |    122564    890143 |
=====================================================================================================
Number of solutions   : 0
Canonical subgraphs   : 136700         (21 /sec)
          order  3    : 1              (166667 /sec)
          order  4    : 1              (500000 /sec)
          order  5    : 1              (200000 /sec)
          order  6    : 1              (55556 /sec)
          order  7    : 2              (10152 /sec)
          order  8    : 4              (2080 /sec)
          order  9    : 14             (551 /sec)
          order 10    : 58             (186 /sec)
          order 11    : 310            (66 /sec)
          order 12    : 1538           (31 /sec)
          order 13    : 10219          (27 /sec)
          order 14    : 120197         (21 /sec)
          order 15    : 3810           (20 /sec)
          order 16    : 527            (13 /sec)
          order 17    : 14             (5 /sec)
          order 18    : 2              (4 /sec)
          order 19    : 1              (3 /sec)
          order 20    : 0              (-nan /sec)
          order 21    : 0              (-nan /sec)
          order 22    : 0              (-nan /sec)
Noncanonical subgraphs: 1046943        (139 /sec)
          order  3    : 0              (-nan /sec)
          order  4    : 0              (-nan /sec)
          order  5    : 0              (-nan /sec)
          order  6    : 0              (-nan /sec)
          order  7    : 0              (-nan /sec)
          order  8    : 0              (-nan /sec)
          order  9    : 0              (-nan /sec)
          order 10    : 0              (-nan /sec)
          order 11    : 0              (-nan /sec)
          order 12    : 0              (-nan /sec)
          order 13    : 38256          (3557 /sec)
          order 14    : 163879         (1015 /sec)
          order 15    : 834103         (115 /sec)
          order 16    : 9828           (184 /sec)
          order 17    : 874            (147 /sec)
          order 18    : 3              (31 /sec)
          order 19    : 0              (-nan /sec)
          order 20    : 0              (-nan /sec)
          order 21    : 0              (-nan /sec)
Canonicity checking   : 6514.47 s
Noncanonicity checking: 7505.42 s
Total canonicity time : 14019.9 s
database reductions   : 62
restarts              : 2429
conflicts             : 1270726        (88 /sec)
decisions             : 2518414        (0.00 % random) (175 /sec)
propagations          : 137327167      (9561 /sec)
conflict literals     : 31556019       (62.26 % deleted)
actual reward         : 0.044638
Memory used           : 424.00 MB
CPU time              : 14363.6 s

UNSATISFIABLE
